c Random 2 Leveled Graph
c 5 Rows, 5 columns, capacities in range [0, 100]
p max 27 70
n 1 s
n 27 t
a 1 6 300
a 1 5 300
a 1 4 300
a 1 3 300
a 1 2 300
a 2 7 61
a 2 9 83
a 2 10 82
a 3 11 23
a 3 9 99
a 3 10 36
a 4 11 75
a 4 10 40
a 4 7 3
a 5 8 2
a 5 7 52
a 5 11 52
a 6 10 66
a 6 11 43
a 6 8 99
a 7 14 92
a 7 16 97
a 7 12 20
a 8 13 96
a 8 14 83
a 8 16 68
a 9 15 73
a 9 12 14
a 9 13 26
a 10 15 19
a 10 13 21
a 10 14 79
a 11 13 34
a 11 16 36
a 11 15 40
a 12 19 44
a 12 21 32
a 12 20 65
a 13 17 13
a 13 20 35
a 13 18 53
a 14 19 5
a 14 20 69
a 14 21 16
a 15 19 71
a 15 17 4
a 15 21 24
a 16 17 80
a 16 18 72
a 16 21 92
a 17 26 72
a 17 22 55
a 17 25 76
a 18 26 85
a 18 25 29
a 18 23 3
a 19 26 40
a 19 23 79
a 19 24 47
a 20 26 47
a 20 22 62
a 20 23 60
a 21 22 88
a 21 24 20
a 21 23 72
a 22 27 300
a 23 27 300
a 24 27 300
a 25 27 300
a 26 27 300
